p cnf 18 43
5 -18 -10 -4 -2 0
7 11 -6 -4 -2 0
2 5 11 -14 -10 0
1 11 -18 14 -2 0
3 -16 17 -14 -10 0
9 -16 17 -13 -4 0
5 7 -14 -10 -6 0
6 11 13 15 -14 0
9 -18 17 -6 -4 0
7 13 17 -12 -8 0
2 14 -13 -12 -8 0
9 13 -18 -14 -1 0
1 7 -16 -14 -5 0
3 6 11 14 -10 0
3 -18 -6 -4 -2 0
2 13 -18 17 -14 0
1 12 13 15 -4 0
1 7 -13 -8 -5 0
6 15 -14 -10 -2 0
3 13 -18 -14 -2 0
-16 11 0
9 -12 0
-18 15 0
2 -1 0
9 -10 0
-12 15 0
9 6 0
17 11 0
-12 -18 0
9 4 0
4 15 0
17 6 0
-16 -12 0
-5 15 0
-16 15 0
11 -5 0
8 0
-7 0
-3 0
11 13 -2 0
1 -2 17 0
-6 11 -13 0
4 13 0
